75
[7,8,10,11,12,13,14,15,16,17,18,19,20,21,22,23,24,25,26,27,29,31,32,33,34,36,37,38,41,43,44,45,46,47,48,49,50,52,53,54,55,56,57,58,59,60]
[4,3,2,2,1,3,3,1,1,1,1,4,4,1,2,2,1,2,1,1,2,1,1,2,5,2,3,1,2,3,3,4,5,2,3,3,1,4,1,1,1,3,1,2,2,2]
